\ Model Routes
\ LP format - for model browsing. Use MPS format to capture full model detail.
Maximize
  - 191.7153353028244 R{0,0} + 623.2046552982704 R{0,1}
   + 623.2046552982704 R{0,2} - 249.2301939667805 R{0,3}
   + 234.7650315204939 R{0,4} + 397.2891588355392 R{0,5}
   + 449.0745601781551 R{0,6} + 128.545475120328 R{0,7}
   + 155.6154981345337 R{0,8} + 577.8421868511019 R{0,9}
   - 256.140831891889 R{1,0} - 58.16416216887956 R{1,1}
   + 669.0062570112706 R{1,2} + 653.2188619780368 R{1,3}
   + 439.288000325269 R{1,4} + 115.0586032119298 R{1,5}
   + 653.2188619780368 R{1,6} + 966.4962483187182 R{2,0}
   + 966.4962483187182 R{2,1} - 278.4443928850388 R{2,2}
   - 59.13410337035452 R{2,3} + 602.7748664658451 R{2,4}
   + 1100.505917706273 R{2,5} + 343.8687336675509 R{2,6}
   + 462.2985486765674 R{2,7} + 465.2175846111744 R{2,8}
   + 1005.777703503751 R{2,9} + 1127.126554447374 R{2,10}
   + 675.0053638221349 R{2,11} + 819.3752605616277 R{2,12}
   + 856.7644041340359 R{2,13} + 787.0829641467217 R{2,14}
   + 944.2853599860337 R{2,15} - 260.2482995389823 R{3,0}
   + 967.7221973521264 R{3,1} + 1335.663160618656 R{3,2}
   + 1696.665877888776 R{3,3} + 1392.43087208261 R{3,4}
   + 429.348751743696 R{3,5} + 995.8038445682728 R{3,6}
   + 1280.804599864163 R{3,7} + 728.6266576739938 R{3,8}
   + 1333.617648374281 R{3,9} + 1317.268432692792 R{3,10}
   + 1017.429316316254 R{3,11} - 242.5208875955131 R{4,0}
   + 1055.572474837385 R{4,1} + 1576.196574514046 R{4,2}
   + 1931.337246971942 R{4,3} + 1093.005378117547 R{4,4}
   + 1145.544931014556 R{4,5} + 808.7401544286536 R{4,6}
   + 985.9291367744395 R{4,7} + 984.8538542773272 R{4,8}
   + 800.9322088979729 R{4,9} + 1806.022153670899 R{4,10}
   - 231.9775664337766 R{5,0} + 40.49903117334031 R{5,1}
   + 364.0546919427258 R{5,2} + 652.6535922067812 R{5,3}
   + 652.0432439013621 R{5,4} + 819.8006223066668 R{5,5}
   + 745.2066912008389 R{5,6} + 551.6605433954483 R{5,7}
   + 673.1778370190796 R{5,8} - 231.1436095783099 R{6,0}
   + 120.1285528432641 R{6,1} + 1144.238169502638 R{6,2}
   + 1709.383530245978 R{6,3} + 1594.761946444504 R{6,4}
   + 2159.421613291385 R{6,5} + 1510.846876078733 R{6,6}
   + 2166.297907229821 R{6,7} + 2336.052630442316 R{6,8}
   + 2005.08870357842 R{6,9} + 1935.15421940739 R{6,10}
   + 1391.753399998909 R{6,11} + 2384.693955482266 R{6,12}
   + 2550.681956487475 R{6,13} + 1521.137533769003 R{6,14}
   + 1651.850855178443 R{6,15}
Subject To
 R00: R{0,0} <= 1
 R01: R{0,1} <= 1
 R02: R{0,2} <= 1
 R03: R{0,3} <= 1
 R04: R{0,4} <= 1
 R05: R{0,5} <= 1
 R06: R{0,6} <= 1
 R07: R{0,7} <= 1
 R08: R{0,8} <= 1
 R09: R{0,9} <= 1
 R010: R{1,0} <= 1
 R011: R{1,1} <= 1
 R012: R{1,2} <= 1
 R013: R{1,3} <= 1
 R014: R{1,4} <= 1
 R015: R{1,5} <= 1
 R016: R{1,6} <= 1
 R017: R{2,0} <= 1
 R018: R{2,1} <= 1
 R019: R{2,2} <= 1
 R020: R{2,3} <= 1
 R021: R{2,4} <= 1
 R022: R{2,5} <= 1
 R023: R{2,6} <= 1
 R024: R{2,7} <= 1
 R025: R{2,8} <= 1
 R026: R{2,9} <= 1
 R027: R{2,10} <= 1
 R028: R{2,11} <= 1
 R029: R{2,12} <= 1
 R030: R{2,13} <= 1
 R031: R{2,14} <= 1
 R032: R{2,15} <= 1
 R033: R{3,0} <= 1
 R034: R{3,1} <= 1
 R035: R{3,2} <= 1
 R036: R{3,3} <= 1
 R037: R{3,4} <= 1
 R038: R{3,5} <= 1
 R039: R{3,6} <= 1
 R040: R{3,7} <= 1
 R041: R{3,8} <= 1
 R042: R{3,9} <= 1
 R043: R{3,10} <= 1
 R044: R{3,11} <= 1
 R045: R{4,0} <= 1
 R046: R{4,1} <= 1
 R047: R{4,2} <= 1
 R048: R{4,3} <= 1
 R049: R{4,4} <= 1
 R050: R{4,5} <= 1
 R051: R{4,6} <= 1
 R052: R{4,7} <= 1
 R053: R{4,8} <= 1
 R054: R{4,9} <= 1
 R055: R{4,10} <= 1
 R056: R{5,0} <= 1
 R057: R{5,1} <= 1
 R058: R{5,2} <= 1
 R059: R{5,3} <= 1
 R060: R{5,4} <= 1
 R061: R{5,5} <= 1
 R062: R{5,6} <= 1
 R063: R{5,7} <= 1
 R064: R{5,8} <= 1
 R065: R{6,0} <= 1
 R066: R{6,1} <= 1
 R067: R{6,2} <= 1
 R068: R{6,3} <= 1
 R069: R{6,4} <= 1
 R070: R{6,5} <= 1
 R071: R{6,6} <= 1
 R072: R{6,7} <= 1
 R073: R{6,8} <= 1
 R074: R{6,9} <= 1
 R075: R{6,10} <= 1
 R076: R{6,11} <= 1
 R077: R{6,12} <= 1
 R078: R{6,13} <= 1
 R079: R{6,14} <= 1
 R080: R{6,15} <= 1
 R1_0: R{0,0} + R{0,1} + R{0,2} + R{0,3} + R{0,4} + R{0,5} + R{0,6}
   + R{0,7} + R{0,8} + R{0,9} <= 1
 R1_1: R{1,0} + R{1,1} + R{1,2} + R{1,3} + R{1,4} + R{1,5} + R{1,6} <= 1
 R1_2: R{2,0} + R{2,1} + R{2,2} + R{2,3} + R{2,4} + R{2,5} + R{2,6}
   + R{2,7} + R{2,8} + R{2,9} + R{2,10} + R{2,11} + R{2,12} + R{2,13}
   + R{2,14} + R{2,15} <= 1
 R1_3: R{3,0} + R{3,1} + R{3,2} + R{3,3} + R{3,4} + R{3,5} + R{3,6}
   + R{3,7} + R{3,8} + R{3,9} + R{3,10} + R{3,11} <= 1
 R1_4: R{4,0} + R{4,1} + R{4,2} + R{4,3} + R{4,4} + R{4,5} + R{4,6}
   + R{4,7} + R{4,8} + R{4,9} + R{4,10} <= 1
 R1_5: R{5,0} + R{5,1} + R{5,2} + R{5,3} + R{5,4} + R{5,5} + R{5,6}
   + R{5,7} + R{5,8} <= 1
 R1_6: R{6,0} + R{6,1} + R{6,2} + R{6,3} + R{6,4} + R{6,5} + R{6,6}
   + R{6,7} + R{6,8} + R{6,9} + R{6,10} + R{6,11} + R{6,12} + R{6,13}
   + R{6,14} + R{6,15} <= 1
 R2_0: <= 0
 R2_1: 10 R{3,1} + 10 R{3,2} + 10 R{3,3} + 10 R{3,4} + 10 R{3,7}
   + 10 R{3,8} + 10 R{3,9} + 10 R{3,10} + 10 R{5,5} <= 10
 R2_2: <= 0
 R2_3: 4 R{5,1} + 4 R{5,2} + 4 R{5,3} + 4 R{5,8} <= 4
 R2_4: <= 0
 R2_5: 5 R{5,1} + 5 R{5,2} + 5 R{5,3} + 5 R{5,4} + 5 R{5,7} <= 5
 R2_6: 10 R{5,5} + 10 R{5,6} + 10 R{6,1} + 10 R{6,2} + 10 R{6,3}
   + 10 R{6,4} + 10 R{6,5} + 10 R{6,6} + 10 R{6,8} + 10 R{6,10}
   + 10 R{6,12} + 10 R{6,13} + 10 R{6,15} <= 10
 R2_7: <= 0
 R2_8: <= 0
 R2_9: 12 R{4,1} + 12 R{4,2} + 12 R{4,3} + 12 R{4,4} + 12 R{4,10} <= 12
 R2_10: 8 R{6,1} + 8 R{6,2} + 8 R{6,3} + 8 R{6,4} + 8 R{6,5} + 8 R{6,6}
   + 8 R{6,7} + 8 R{6,8} <= 8
 R2_11: <= 0
 R2_12: <= 0
 R2_13: <= 0
 R2_14: <= 0
 R2_15: 11 R{0,0} + 11 R{0,1} + 11 R{0,2} + 11 R{0,8} + 11 R{4,1}
   + 11 R{4,2} + 11 R{4,3} + 11 R{4,4} + 11 R{4,6} + 11 R{4,7} <= 11
 R2_16: <= 0
 R2_17: <= 0
 R2_18: <= 0
 R2_19: 11 R{2,6} + 11 R{2,9} + 11 R{2,15} + 11 R{4,1} + 11 R{4,2}
   + 11 R{4,3} + 11 R{4,10} <= 11
 R2_20: 13 R{0,5} + 13 R{1,4} + 13 R{2,5} + 13 R{2,8} + 13 R{2,10}
   + 13 R{2,11} + 13 R{3,1} + 13 R{3,2} + 13 R{3,3} + 13 R{3,4} + 13 R{3,6}
   + 13 R{3,11} + 13 R{5,2} + 13 R{5,4} + 13 R{5,7} <= 13
 R2_21: <= 0
 R2_22: <= 0
 R2_23: 14 R{0,1} + 14 R{0,2} + 14 R{0,9} + 14 R{2,0} + 14 R{2,1}
   + 14 R{2,7} + 14 R{2,14} + 14 R{6,2} + 14 R{6,3} + 14 R{6,5} + 14 R{6,7}
   + 14 R{6,8} + 14 R{6,9} + 14 R{6,12} + 14 R{6,13} <= 14
 R2_24: 10 R{3,1} + 10 R{3,2} + 10 R{3,3} + 10 R{3,5} + 10 R{3,7}
   + 10 R{3,8} + 10 R{3,9} + 10 R{5,6} <= 10
 R2_25: 13 R{4,1} + 13 R{4,2} + 13 R{4,3} + 13 R{4,10} + 13 R{6,15} <= 13
 R2_26: 6 R{1,1} + 6 R{1,2} + 6 R{1,3} + 6 R{1,4} + 6 R{1,5} + 6 R{1,6}
   + 6 R{2,12} + 6 R{2,15} <= 6
 R2_27: 5 R{0,7} + 5 R{2,11} + 5 R{3,4} + 5 R{3,6} + 5 R{3,10} + 5 R{5,5}
   + 5 R{6,4} + 5 R{6,6} + 5 R{6,7} + 5 R{6,8} + 5 R{6,9} + 5 R{6,11}
   + 5 R{6,13} + 5 R{6,15} <= 5
 R2_28: <= 0
 R2_29: <= 0
 R2_30: <= 0
 R2_31: 6 R{5,5} + 6 R{6,1} + 6 R{6,2} <= 6
 R2_32: 7 R{0,4} + 7 R{0,5} + 7 R{5,7} <= 7
 R2_33: <= 0
 R2_34: 5 R{3,9} + 5 R{3,11} + 5 R{6,14} <= 5
 R2_35: <= 0
 R2_36: <= 0
 R2_37: 5 R{1,5} + 5 R{5,1} + 5 R{5,3} + 5 R{5,8} <= 5
 R2_38: <= 0
 R2_39: <= 0
 R2_40: 15 R{2,3} + 15 R{2,4} + 15 R{2,5} + 15 R{2,6} + 15 R{2,8}
   + 15 R{2,9} + 15 R{2,10} + 15 R{2,12} <= 15
 R2_41: 5 R{3,2} + 5 R{3,3} + 5 R{3,4} + 5 R{3,6} + 5 R{3,9} + 5 R{3,11}
   + 5 R{4,4} + 5 R{4,5} + 5 R{4,6} + 5 R{4,7} + 5 R{4,8} + 5 R{4,9}
   + 5 R{6,5} + 5 R{6,7} + 5 R{6,8} + 5 R{6,9} + 5 R{6,10} + 5 R{6,11}
   + 5 R{6,12} + 5 R{6,13} <= 5
 R2_42: 4 R{2,3} + 4 R{2,4} + 4 R{2,5} + 4 R{2,6} + 4 R{2,8} + 4 R{2,9}
   + 4 R{2,10} + 4 R{2,11} + 4 R{2,12} <= 4
 R2_43: <= 0
 R2_44: <= 0
 R2_45: <= 0
 R2_46: 9 R{0,6} + 9 R{0,8} + 9 R{0,9} + 9 R{2,13} + 9 R{4,8} + 9 R{4,9}
   <= 9
 R2_47: 7 R{1,1} + 7 R{1,2} <= 7
 R2_48: 4 R{4,1} + 4 R{4,2} + 4 R{4,3} + 4 R{4,4} + 4 R{4,5} + 4 R{4,6}
   + 4 R{4,7} + 4 R{4,10} <= 4
 R2_49: <= 0
 R2_50: <= 0
 R2_51: 11 R{5,6} <= 11
 R2_52: <= 0
 R2_53: 13 R{4,1} + 13 R{4,2} <= 13
 R2_54: 9 R{3,1} + 9 R{3,2} + 9 R{3,3} + 9 R{3,4} + 9 R{3,5} + 9 R{3,7}
   + 9 R{3,8} + 9 R{3,9} <= 9
 R2_55: <= 0
 R2_56: 6 R{2,0} + 6 R{2,1} + 6 R{2,13} + 6 R{4,3} + 6 R{4,4} + 6 R{4,5}
   + 6 R{4,7} + 6 R{6,2} + 6 R{6,3} + 6 R{6,4} + 6 R{6,5} + 6 R{6,7}
   + 6 R{6,8} + 6 R{6,10} + 6 R{6,11} + 6 R{6,12} + 6 R{6,13} + 6 R{6,14}
   <= 6
 R2_57: <= 0
 R2_58: <= 0
 R2_59: 10 R{4,10} + 10 R{6,6} + 10 R{6,15} <= 10
 R2_60: <= 0
 R2_61: 9 R{2,7} + 9 R{2,14} + 9 R{4,5} + 9 R{4,6} + 9 R{4,7} + 9 R{4,8}
   + 9 R{4,9} + 9 R{6,9} + 9 R{6,10} + 9 R{6,11} + 9 R{6,12} + 9 R{6,13}
   + 9 R{6,14} <= 9
 R2_62: <= 0
 R2_63: <= 0
 R2_64: <= 0
 R2_65: <= 5
 R2_66: 7 R{3,5} + 7 R{3,8} <= 7
 R2_67: 3 R{0,1} + 3 R{0,2} + 3 R{0,6} + 3 R{2,0} + 3 R{2,1} + 3 R{2,13}
   + 3 R{2,14} <= 3
 R2_68: 6 R{4,1} <= 6
 R2_69: 7 R{4,1} + 7 R{4,2} + 7 R{4,3} + 7 R{4,4} + 7 R{4,5} + 7 R{4,6}
   + 7 R{4,8} + 7 R{4,10} <= 7
 R2_70: 11 R{6,1} + 11 R{6,2} + 11 R{6,3} <= 11
 R2_71: 7 R{3,1} + 7 R{3,2} + 7 R{3,3} + 7 R{3,5} + 7 R{3,7} + 7 R{3,8}
   + 7 R{3,10} + 7 R{3,11} + 7 R{6,2} + 7 R{6,3} + 7 R{6,5} + 7 R{6,10}
   + 7 R{6,11} + 7 R{6,12} + 7 R{6,14} <= 7
 R2_72: <= 0
 R2_73: <= 0
 R2_74: 5 R{5,1} + 5 R{5,2} + 5 R{5,4} + 5 R{5,7} <= 5
 R2_75: 8 R{6,1} + 8 R{6,2} + 8 R{6,3} + 8 R{6,4} + 8 R{6,5} + 8 R{6,6}
   + 8 R{6,7} + 8 R{6,9} + 8 R{6,10} + 8 R{6,11} + 8 R{6,12} + 8 R{6,14}
   <= 8
 R2_76: 12 R{0,4} + 12 R{3,3} + 12 R{3,9} + 12 R{5,4} + 12 R{5,6} <= 12
 R2_77: 7 R{1,2} + 7 R{1,3} + 7 R{1,6} + 7 R{2,4} + 7 R{2,5} + 7 R{2,9}
   + 7 R{2,10} + 7 R{2,12} + 7 R{2,15} + 7 R{3,7} + 7 R{3,10} + 7 R{4,2}
   + 7 R{4,3} + 7 R{4,10} + 7 R{5,3} + 7 R{5,8} + 7 R{6,3} + 7 R{6,4}
   + 7 R{6,5} + 7 R{6,6} + 7 R{6,7} + 7 R{6,8} + 7 R{6,9} + 7 R{6,10}
   + 7 R{6,12} + 7 R{6,13} + 7 R{6,14} + 7 R{6,15} <= 7
Bounds
End
